! B3LYP D3BJ ZORA ZORA-def2-TZVP RIJCOSX def2/J keepdens SOMF(1X) grid6 gridx6 nofinalgrid NoFinalGridX tightscf
!MORead


! KDIIS SOSCF
%maxcore 10000

%pal
nprocs 16
end


%method
ScalHFX = 0.38
SpecialGridAtoms 29
SpecialGridAtoms 7
end

%scf
SOSCFStart 0.00033
maxiter 200
DIISMaxEq 15
directresetfreq 10
sthresh 1e-6
end

%basis
newgto H "ZORA-def2-SVP" end
end

*xyz 0 2



*

%eprnmr
gtensor 1
maxiter 300
Tol 1e-8
end
